100
32
23
18
3
9
9
17
9
7
7
13
25
2
4
7
1
1
10
10
12
19
5
1
3
7
1
5
17
2
1
1
1
1
1
16
2
7
19
3
17
3
2
3
18
2
3
4
1
1
2
2
1
1
2
1
1
2
3
18
3
1
2
1
18
4
1
1
2
2
17
1
1
2
1
9
1
2
2
18
3
1
4
2
1
1
3
1
1
1
2
2
1
4
1
17
3
3
2
1
2
1